(set-logic ALL)
(declare-const name String)
(assert (not (str.contains name "%")))
(assert (not (< (str.len name) 0)))
(assert (not (> (+ 0 (str.indexof name ":" 0)) 0)))
(assert (= name "//"))
(assert (not (< (str.len name) 0)))
(assert (not (>= (+ 2 (str.indexof (str.substr name 2 (- (str.len name) 2)) "/" 0)) 0)))
(assert (not (< (str.len name) 0)))
(assert (not (>= (+ 2 (str.indexof (str.substr name 2 (- (str.len name) 2)) "?" 0)) 0)))
(assert (not (< (str.len name) 0)))
(assert (not (>= (+ 2 (str.indexof (str.substr name 2 (- (str.len name) 2)) "#" 0)) 0)))
(assert (not (< (str.len name) 0)))
(assert (not (< (str.len name) 0)))
(assert (not (< (str.len name) 0)))
(assert (not (str.contains (str.substr name 2 (- (str.len name) 2)) "[")))
(assert (not (str.contains (str.substr name 2 (- (str.len name) 2)) "]")))
(assert (not (str.contains (str.substr name (str.len name) (- (str.len name) (str.len name))) "#")))
(assert (not (str.contains (str.substr name (str.len name) (- (str.len name) (str.len name))) "?")))
(assert (not (= (str.substr name 2 (- (str.len name) 2)) "")))
(check-sat)
(get-value (name))
